DATASET = "thpack1";
INSTANCE = "047";

WIDTH = 233;
HEIGHT = 220;
LENGTH = 587;

NO_OF_SHAPES = 3;
size = [|
  118,54,42 |
  112,95,20 |
  118,38,37 |
|];

verticality = [|
  0,1,1 |
  0,0,1 |
  0,1,1 |
|];

box_count = [
  51,
  41,
  45,
];
